%chk=TMSOTf_red_SiOscan.chk
%nprocshared=16
%mem=24GB
#p B3LYP/def2SVP EmpiricalDispersion=GD3BJ opt=modredundant SCRF=(SMD,Solvent=Tetrahydrofuran) int=ultrafine

TMSOTf+e- Si-O cleavage

-1 2
C       -1.144031      -0.825729      -1.730781
Si      -0.838828       0.190255      -0.174617
C       -1.578841      -0.716091       1.292901
C       -1.825282       1.798298      -0.376342
O        0.775524       0.582674      -0.011966
S        1.710183      -0.587205       0.646941
O        1.451942      -0.617582       2.078180
O        1.581549      -1.800889      -0.144749
C        3.347393       0.189771       0.327764
F        3.470161       1.408745       0.929754
F        3.571592       0.394904      -1.003297
F        4.382482      -0.573731       0.782192
H       -2.217685      -0.953124      -1.898448
H       -0.693435      -1.818362      -1.647780
H       -0.716840      -0.324335      -2.604134
H       -1.131637      -1.707128       1.412531
H       -2.656207      -0.849106       1.154651
H       -1.423244      -0.150964       2.216551
H       -1.470079       2.352910      -1.249566
H       -1.706296       2.428070       0.509949
H       -2.888421       1.578620      -0.509734

B 2 5 S 10 0.10

