&GLOBAL
  PROJECT Al2O3_g
  RUN_TYPE ENERGY
  PRINT_LEVEL MEDIUM
&END GLOBAL
&FORCE_EVAL
  METHOD QS
  &DFT
    BASIS_SET_FILE_NAME BASIS_MOLOPT
    POTENTIAL_FILE_NAME GTH_POTENTIALS
    CHARGE 0
    &MGRID
      CUTOFF 400
      REL_CUTOFF 50
    &END MGRID
    &QS
      EPS_DEFAULT 1.0E-12
    &END QS
    &SCF
      SCF_GUESS ATOMIC
      EPS_SCF 1.0E-6
      MAX_SCF 400
      ADDED_MOS 120
      &SMEAR ON
        METHOD FERMI_DIRAC
        ELECTRONIC_TEMPERATURE [K] 300
      &END SMEAR
      &DIAGONALIZATION ON
        ALGORITHM STANDARD
      &END DIAGONALIZATION
      &MIXING ON
        METHOD BROYDEN_MIXING
        ALPHA 0.3
        NBROYDEN 8
      &END MIXING
    &END SCF
    &XC
      &XC_FUNCTIONAL PBE
      &END XC_FUNCTIONAL
      &VDW_POTENTIAL
        POTENTIAL_TYPE PAIR_POTENTIAL
        &PAIR_POTENTIAL
          TYPE DFTD3
          PARAMETER_FILE_NAME dftd3.dat
          REFERENCE_FUNCTIONAL PBE
        &END PAIR_POTENTIAL
      &END VDW_POTENTIAL
    &END XC
    &PRINT
      &MO
        EIGENVALUES .TRUE.
        OCCUPATION_NUMBERS .TRUE.
        &EACH
          QS_SCF 0
        &END EACH
      &END MO
    &END PRINT

  &END DFT
   &SUBSYS
     &CELL
       A  4.7462395064782292E+000  0.0000000000000000E+000  0.0000000000000000E+000
       B -2.3729936242672971E+000  4.1104370020428798E+000  0.0000000000000000E+000
       C  3.3202615043957721E-004 -1.9116094684883380E-004  1.3077644378122887E+001
       PERIODIC XYZ
       MULTIPLE_UNIT_CELL 1 1 1
     &END CELL
     &COORD
       Al  2.4554467378231509E-004  2.7401917559506268E+000  6.7768581385838953E+000
       Al  2.4735553565378315E-004 -1.4943241157219865E-004  1.1138686488247579E+001
       Al  2.3733864167504231E+000  1.3700110381039083E+000  8.9542753056865614E+000
       Al  8.4694403401961411E-005 -4.2357769970104373E-005  1.9389579194301640E+000
       Al  8.7186273329740109E-005 -4.3602745031591108E-005  4.5998650325800305E+000
       Al  2.4477681929452116E-004 -1.4818573853620624E-004  8.4777793612517431E+000
       Al  1.9145844632141297E-004  2.7402342737233907E+000  4.1233690660712785E+000
       Al  2.3733324109738319E+000  1.3700533034587237E+000  6.3007862329698821E+000
       Al  2.3734928583941599E+000  1.3699482630944806E+000  1.2839606003055604E+001
       Al  2.3732247983970076E+000  1.3701143224476511E+000  2.4154556156375224E+000
       Al  8.5002171719646366E-005  2.7402969264466872E+000  2.3803838655360809E-001
       Al  3.5313979593649107E-004  2.7401309091568438E+000  1.0662188760669356E+001
       O -1.4719687890009470E+000  2.7417181870345324E+000  5.4557107265202438E+000
       O  7.3694978505071984E-001  1.2758140174431407E+000  9.8082326353450124E+000
       O  3.2730165553469890E+000 -1.1839268988585771E-004  9.8082603484890871E+000
       O  3.8455466975103842E+000  1.3685270085953070E+000  7.6219336309947563E+000
       O  4.0096041604972017E+000  1.2760262182470750E+000  3.2694395683395214E+000
       O  1.6366279758505715E+000  2.8344310239046693E+000  3.2694117536482286E+000
       O  1.4735549639521144E+000 -7.3293171407579974E-005  3.2693839975986356E+000
       O  7.3499762071644870E-001  1.4645610086302110E+000  5.4556837035195951E+000
       O  7.3747372956278678E-001  4.0143136516172806E+000  5.4556143885607593E+000
       O  3.1102134058337207E+000  2.8342188494875868E+000  9.8082048347938304E+000
       O  1.6385804983890819E+000  2.6456839027170678E+000  7.6219607124239115E+000
       O  1.6361039954516476E+000  9.5931247697014832E-002  7.6220299336149662E+000
       O  9.0105735126279018E-001  1.3686830824314304E+000  1.0831393104710760E+000
       O  3.1105507842900311E+000  9.5906201364342067E-002  1.0831122874738977E+000
       O  3.1080069868718021E+000  2.6456358242777567E+000  1.0832087595332756E+000
       O  1.4725205842324540E+000  2.7415621253522344E+000  1.1994504992478214E+001
       O -7.3697268999794008E-001  4.0143387141357474E+000  1.1994532119267550E+001
       O -7.3442923221771506E-001  1.4646091022727403E+000  1.1994435668875100E+001
     &END COORD
     &KIND "Al"
       BASIS_SET "DZVP-MOLOPT-SR-GTH"
       POTENTIAL "GTH-PBE-q3"
       &POTENTIAL
         2 1
           4.5000000000000001E-001 1 -7.5547612600000003E+000
         2
           4.8743529000000002E-001 2  6.9599383200000000E+000 -1.8888358400000000E+000
                                                               2.4384765900000001E+000
           5.6218948999999996E-001 1  1.8652985700000000E+000
         # Potential name: GTH-PBE-Q3 for element symbol: AL
         # Potential read from the potential filename: GTH_POTENTIALS
       &END POTENTIAL
     &END KIND
     &KIND "O"
       BASIS_SET "DZVP-MOLOPT-SR-GTH"
       POTENTIAL "GTH-PBE-q6"
       &POTENTIAL
         2 4
           2.4455430000000000E-001 2 -1.6667214800000000E+001  2.4873113199999999E+000
         2
           2.2095592000000000E-001 1  1.8337458110000000E+001
           2.1133246999999999E-001 0
         # Potential name: GTH-PBE-Q6 for element symbol: O
         # Potential read from the potential filename: GTH_POTENTIALS
       &END POTENTIAL
     &END KIND
     &TOPOLOGY
       NUMBER_OF_ATOMS 30
       MULTIPLE_UNIT_CELL 1 1 1
     &END TOPOLOGY
   &END SUBSYS
&END FORCE_EVAL
