&GLOBAL
  PROJECT Mg17Al12_kp
  RUN_TYPE ENERGY
  PRINT_LEVEL MEDIUM
&END GLOBAL
&FORCE_EVAL
  METHOD QS
  &DFT
    BASIS_SET_FILE_NAME BASIS_MOLOPT
    POTENTIAL_FILE_NAME GTH_POTENTIALS
    CHARGE 0
    &MGRID
      CUTOFF 400
      REL_CUTOFF 50
    &END MGRID
    &QS
      EPS_DEFAULT 1.0E-12
    &END QS
    &KPOINTS
      SCHEME MONKHORST-PACK 2 2 2
      SYMMETRY OFF
      FULL_GRID OFF
      PARALLEL_GROUP_SIZE -1
    &END KPOINTS
    &PRINT
      &MO
        EIGENVALUES .TRUE.
        OCCUPATION_NUMBERS .TRUE.
        &EACH
          QS_SCF 0
        &END EACH
      &END MO
    &END PRINT
    &SCF
      SCF_GUESS ATOMIC
      EPS_SCF 1.0E-6
      MAX_SCF 400
      ADDED_MOS 232
      &SMEAR ON
        METHOD FERMI_DIRAC
        ELECTRONIC_TEMPERATURE [K] 300
      &END SMEAR
      &DIAGONALIZATION ON
        ALGORITHM STANDARD
      &END DIAGONALIZATION
      &MIXING ON
        METHOD BROYDEN_MIXING
        ALPHA 0.3
        NBROYDEN 8
      &END MIXING
    &END SCF
    &XC
      &XC_FUNCTIONAL PBE
      &END XC_FUNCTIONAL
      &VDW_POTENTIAL
        POTENTIAL_TYPE PAIR_POTENTIAL
        &PAIR_POTENTIAL
          TYPE DFTD3
          PARAMETER_FILE_NAME dftd3.dat
          REFERENCE_FUNCTIONAL PBE
        &END PAIR_POTENTIAL
      &END VDW_POTENTIAL
    &END XC
  &END DFT
   &SUBSYS
     &CELL
       A  1.0639737957275864E+001  0.0000000000000000E+000  0.0000000000000000E+000
       B -2.4020773123766051E-009  1.0639737957694509E+001  0.0000000000000000E+000
       C -5.3134078672912153E-010  3.6832942973785378E-009  1.0639737949595398E+001
       PERIODIC XYZ
       MULTIPLE_UNIT_CELL 1 1 1
     &END CELL
     &COORD
       Mg  5.3198704283990272E+000  5.3198566506920386E+000  5.3198651129889596E+000
       Mg  1.2567171945095555E-005  2.9332502646856553E-006 -2.2090441522201300E-007
       Mg  1.9459430776089417E+000  8.6937948791939181E+000  1.9459430791277965E+000
       Mg  8.6937948774542750E+000  1.9459430782505969E+000  1.9459430786571628E+000
       Mg  1.9459430769399262E+000  1.9459430833995695E+000  8.6937948701606604E+000
       Mg  8.6937948751122907E+000  8.6937948808042833E+000  8.6937948712146511E+000
       Mg  7.2658137757252250E+000  7.2658137782085399E+000  3.3739241776883833E+000
       Mg  7.2658137768319948E+000  3.3739241825771829E+000  7.2658137715634821E+000
       Mg  3.3739241787433172E+000  7.2658137803621088E+000  7.2658137725666334E+000
       Mg  3.3739241806269948E+000  3.3739241824764274E+000  3.3739241763650583E+000
       Mg  1.5287410474088643E+000  5.7703934104996559E+000  1.5287410473224761E+000
       Mg  5.7703934090365392E+000  1.5287410500790886E+000  1.5287410477419592E+000
       Mg  1.5287410480948525E+000  4.8693445529369299E+000  9.1109969012204761E+000
       Mg  4.8693445457015248E+000  9.1109969090315666E+000  1.5287410478744370E+000
       Mg  9.1109969069638748E+000  5.7703934120934690E+000  9.1109969022362360E+000
       Mg  9.1109969072205708E+000  4.8693445490343557E+000  1.5287410480942867E+000
       Mg  1.0189213089231743E+001  6.8486120484640498E+000  3.7911259080079418E+000
       Mg  6.8486120456741935E+000  4.5052486969735700E-001  6.8486120425941079E+000
       Mg  4.5052486537866371E-001  6.8486120501780254E+000  6.8486120417877574E+000
       Mg  6.8486120448375472E+000  3.7911259128203763E+000  1.0189213083213522E+001
       Mg  3.7911259089037568E+000  6.8486120510914423E+000  1.0189213081964470E+001
       Mg  6.8486120452104036E+000  6.8486120477073875E+000  4.5052486664180802E-001
       Mg  3.7911259106410529E+000  3.7911259100972181E+000  4.5052486769026107E-001
       Mg  1.5287410454170245E+000  9.1109969109868789E+000  4.8693445449612005E+000
       Mg  9.1109969065982543E+000  9.1109969099602566E+000  5.7703934049427676E+000
       Mg  5.7703934062608457E+000  9.1109969113628235E+000  9.1109969021977317E+000
       Mg  4.8693445483060600E+000  1.5287410515411566E+000  9.1109969019109673E+000
       Mg  4.5052486558274563E-001  3.7911259114345142E+000  3.7911259080228263E+000
       Mg  3.7911259074616761E+000  1.0189213092796102E+001  6.8486120433543318E+000
       Mg  6.8486120439212259E+000  1.0189213092559591E+001  3.7911259064805605E+000
       Mg  1.0189213089356798E+001  3.7911259115131424E+000  6.8486120423545769E+000
       Mg  3.7911259101071009E+000  4.5052486880707737E-001  3.7911259068692069E+000
       Mg  9.1109969090162064E+000  1.5287410508767767E+000  4.8693445448595769E+000
       Mg  1.5287410466629174E+000  1.5287410512764081E+000  5.7703934053392532E+000
       Al  4.3583982530441210E+000  8.2811180510092761E+000  4.3583982635829308E+000
       Al  8.2811180401309556E+000  4.3583982604115139E+000  4.3583982465063524E+000
       Al  4.3583982585231817E+000  2.3586198992120826E+000  6.2813396912584150E+000
       Al  2.3586199160769956E+000  6.2813396899740859E+000  4.3583982604580571E+000
       Al  6.2813396933398344E+000  8.2811180374952897E+000  6.2813396930182881E+000
       Al  6.2813396978136629E+000  2.3586199185071632E+000  4.3583982692480649E+000
       Al  7.6784888892328542E+000  9.6782672385641941E+000  9.6147071648912019E-001
       Al  9.6782672449415692E+000  2.9612490710267156E+000  9.6782672348152570E+000
       Al  2.9612490782445904E+000  9.6782672462573487E+000  9.6782672389419453E+000
       Al  9.6782672420024554E+000  9.6147070973702065E-001  7.6784888765189097E+000
       Al  9.6147070814361069E-001  9.6782672430234129E+000  7.6784888861669316E+000
       Al  9.6782672376908163E+000  9.6782672496262556E+000  2.9612490695605165E+000
       Al  9.6147071113862548E-001  9.6147070692874947E-001  2.9612490812144125E+000
       Al  4.3583982561520385E+000  6.2813397066852277E+000  2.3586199116493263E+000
       Al  6.2813397023290234E+000  6.2813397076827657E+000  8.2811180217458471E+000
       Al  8.2811180388992280E+000  6.2813397048256725E+000  6.2813396965155581E+000
       Al  2.3586198985810336E+000  4.3583982640201944E+000  6.2813396913400377E+000
       Al  2.9612490736865968E+000  9.6147070785892885E-001  9.6147070807256785E-001
       Al  9.6147071449335297E-001  7.6784888947525047E+000  9.6782672350544239E+000
       Al  9.6782672455080387E+000  7.6784889021285201E+000  9.6147071036187737E-001
       Al  7.6784888841153984E+000  9.6147071137842999E-001  9.6782672316701461E+000
       Al  9.6147070751206676E-001  2.9612490882477931E+000  9.6147070704959570E-001
       Al  6.2813397010447876E+000  4.3583982639720578E+000  2.3586198987099833E+000
       Al  4.3583982659923786E+000  4.3583982572058284E+000  8.2811180310973214E+000
     &END COORD
     &KIND "Al"
       BASIS_SET "DZVP-MOLOPT-SR-GTH"
       POTENTIAL "GTH-PBE-q3"
       &POTENTIAL
         2 1
           4.5000000000000001E-001 1 -7.5547612600000003E+000
         2
           4.8743529000000002E-001 2  6.9599383200000000E+000 -1.8888358400000000E+000
                                                               2.4384765900000001E+000
           5.6218948999999996E-001 1  1.8652985700000000E+000
         # Potential name: GTH-PBE-Q3 for element symbol: AL
         # Potential read from the potential filename: GTH_POTENTIALS
       &END POTENTIAL
     &END KIND
     &KIND "Mg"
       BASIS_SET "DZVP-MOLOPT-SR-GTH"
       POTENTIAL "GTH-PBE-q10"
       &POTENTIAL
         4 6
           1.9275787000000000E-001 2 -2.0575390769999998E+001  3.0401673200000001E+000
         2
           1.4140681999999999E-001 1  4.1047292089999999E+001
           1.0293186999999999E-001 1 -9.9856256600000002E+000
         # Potential name: GTH-PBE-Q10 for element symbol: MG
         # Potential read from the potential filename: GTH_POTENTIALS
       &END POTENTIAL
     &END KIND
     &TOPOLOGY
       NUMBER_OF_ATOMS 58
       MULTIPLE_UNIT_CELL 1 1 1
     &END TOPOLOGY
   &END SUBSYS
&END FORCE_EVAL
