&GLOBAL
  PROJECT sio2_quartz
  RUN_TYPE CELL_OPT
  PRINT_LEVEL MEDIUM
&END GLOBAL
&FORCE_EVAL
  METHOD QS
  STRESS_TENSOR  ANALYTICAL
    &DFT
      BASIS_SET_FILE_NAME BASIS_MOLOPT
      POTENTIAL_FILE_NAME GTH_POTENTIALS
      CHARGE 0
      &MGRID
        CUTOFF 400
        REL_CUTOFF 50
      &END MGRID
      &QS
        EPS_DEFAULT 1.0E-12
      &END QS
      &SCF
        SCF_GUESS ATOMIC
        EPS_SCF 1.0E-5
        MAX_SCF 300
        ADDED_MOS 20
        &SMEAR ON
          METHOD FERMI_DIRAC
          ELECTRONIC_TEMPERATURE [K] 500
        &END SMEAR
        &DIAGONALIZATION ON
          ALGORITHM STANDARD
        &END DIAGONALIZATION
        &MIXING ON
          METHOD BROYDEN_MIXING
          ALPHA 0.3
          NBROYDEN 8
        &END MIXING
      &END SCF
      &XC
        &XC_FUNCTIONAL PBE
        &END XC_FUNCTIONAL
        &VDW_POTENTIAL
          POTENTIAL_TYPE PAIR_POTENTIAL
          &PAIR_POTENTIAL
            TYPE DFTD3
            PARAMETER_FILE_NAME dftd3.dat
            REFERENCE_FUNCTIONAL PBE
          &END PAIR_POTENTIAL
        &END VDW_POTENTIAL
      &END XC
    &END DFT
    &SUBSYS
      &CELL
        ABC 4.916 4.916 5.405
        ALPHA_BETA_GAMMA 90.0 90.0 120.0
        PERIODIC XYZ
      &END CELL
      &COORD
        SCALED .TRUE.
        Si   0.4699  0.0000  0.3333
        Si   0.0000  0.4699  0.6667
        Si   0.5301  0.5301  0.0000
        O    0.4141  0.2681  0.2855
        O    0.7319  0.1460  0.6188
        O    0.8540  0.5859  0.9522
        O    0.2681  0.4141  0.7145
        O    0.1460  0.7319  0.3812
        O    0.5859  0.8540  0.0478
      &END COORD
      &KIND Si
        BASIS_SET DZVP-MOLOPT-SR-GTH
        POTENTIAL GTH-PBE-q4
      &END KIND
      &KIND O
        BASIS_SET DZVP-MOLOPT-SR-GTH
        POTENTIAL GTH-PBE-q6
      &END KIND
    &END SUBSYS
&END FORCE_EVAL
&MOTION
  &CELL_OPT
    OPTIMIZER LBFGS
    MAX_ITER 200
    KEEP_ANGLES .TRUE.
  &END CELL_OPT
  &GEO_OPT
    OPTIMIZER BFGS
    MAX_ITER 300
  &END GEO_OPT
&END MOTION
