&GLOBAL
  PROJECT O2
  RUN_TYPE GEO_OPT
&END GLOBAL
&FORCE_EVAL
  METHOD QS
  &DFT
    UKS T
    MULTIPLICITY 3
    CHARGE 0
@INCLUDE '_hdr.inc'
  &END DFT
  &SUBSYS
    &CELL
      ABC 14.0 14.0 14.0
      PERIODIC XYZ
    &END CELL
    &COORD
      O 7.0 7.0 6.4
      O 7.0 7.0 7.6
    &END COORD
    &KIND O
      BASIS_SET DZVP-MOLOPT-SR-GTH
      POTENTIAL GTH-PBE-q6
    &END KIND
  &END SUBSYS
&END FORCE_EVAL
&MOTION
  &GEO_OPT
    OPTIMIZER BFGS
    MAX_ITER 100
  &END GEO_OPT
&END MOTION
