%chk=AlOH3_cpxtz.chk
%nprocshared=8
%mem=14GB
#p B3LYP/def2TZVP EmpiricalDispersion=GD3BJ SCRF=(SMD,Solvent=Tetrahydrofuran) int=ultrafine

AlOH3_cpxtz

-1 1
Al 2.23183 -0.05979 -0.09288
O 0.78523 -0.21529 -1.12145
O 3.14241 1.36630 -0.40380
O 3.02418 -1.55582 0.14042
H 0.71274 -0.97087 -1.72780
H 4.03842 1.43705 -0.05942
H 3.38078 -1.81012 0.99662
Al -0.92459 0.01518 -0.13673
Cl 0.72198 0.37869 1.55551
Cl -1.46715 1.80437 -1.24999
Cl -2.45254 0.10778 1.45791
Cl -1.55174 -1.98717 -0.88966

