%chk=AlOH3_cpx.chk
%nprocshared=8
%mem=14GB
#p B3LYP/def2SVP EmpiricalDispersion=GD3BJ opt SCRF=(SMD,Solvent=Tetrahydrofuran) int=ultrafine

AlOH3+AlCl4(-)

-1 1
Al 0.00545 0.00874 0.00000
O -0.02813 1.70837 0.00000
O -0.02813 -0.78585 1.50784
O -0.02813 -0.78585 -1.50784
H 0.74345 2.28308 0.00000
H -0.06960 -1.74505 1.59302
H -0.06960 -1.74505 -1.59302
Al 5.66688 0.12060 0.18503
Cl 3.50290 0.07784 0.11431
Cl 6.40851 -1.82709 0.77338
Cl 6.31291 1.60399 1.62441
Cl 6.44320 0.62764 -1.77197

