%chk=disiloxane_cpxtz.chk
%nprocshared=8
%mem=14GB
#p B3LYP/def2TZVP EmpiricalDispersion=GD3BJ SCRF=(SMD,Solvent=Tetrahydrofuran) int=ultrafine

disiloxane_cpxtz

-1 1
Si -3.21061 -1.40139 0.02137
O -3.26079 0.24826 -0.17825
Si -2.33410 1.61461 0.04655
H -4.53971 -1.82426 0.55436
H -2.15475 -1.79450 0.99363
H -2.99989 -2.08980 -1.28091
H -3.25026 2.69577 0.51775
H -1.30289 1.37142 1.08672
H -1.71788 2.05577 -1.23070
Al 1.48257 -0.05977 0.00976
Cl -0.04966 -0.73877 -1.37691
Cl 0.94873 -0.65859 2.01780
Cl 1.64075 2.09285 -0.11585
Cl 3.36630 -0.96658 -0.54226

