%chk=Me2O_cpx.chk
%nprocshared=8
%mem=14GB
#p B3LYP/def2SVP EmpiricalDispersion=GD3BJ opt=(maxcycles=200) scf=xqc SCRF=(SMD,Solvent=Tetrahydrofuran) int=ultrafine

Me2O+AlCl4(-) restart

-1 1
O -3.84367 0.20663 0.03471
C -2.78612 1.13189 -0.01577
C -3.39215 -1.12258 -0.01193
H -2.09394 1.01861 0.83976
H -2.18875 1.03176 -0.94242
H -3.21699 2.14522 0.01428
H -4.27108 -1.78402 0.04893
H -2.70825 -1.36133 0.82675
H -2.84581 -1.34564 -0.94995
Al 1.04659 -0.01666 -0.00034
Cl 0.17397 -1.00439 -1.72084
Cl 0.16060 -0.79267 1.82168
Cl 0.69544 2.11684 -0.12887
Cl 3.17813 -0.39019 0.03130

