%chk=phosphazene_cpx.chk
%nprocshared=8
%mem=14GB
#p B3LYP/def2SVP EmpiricalDispersion=GD3BJ opt SCRF=(SMD,Solvent=Tetrahydrofuran) int=ultrafine

phosphazene+AlCl4(-)

-1 1
P 0.42672 -0.00865 0.00002
N -1.15137 0.13176 -0.00000
H -1.60943 -0.78442 -0.00032
H 1.12485 -0.64242 1.08189
H 1.01820 1.27222 0.00240
H 1.12526 -0.63796 -1.08428
Al -5.77692 -1.83029 -0.00015
Cl -3.69909 -1.22016 -0.00009
Cl -6.37686 -2.34945 2.01484
Cl -6.02420 -3.55013 -1.29268
Cl -7.00753 -0.20143 -0.72266

