&GLOBAL
  PROJECT aimd_poly
  RUN_TYPE MD
  PRINT_LEVEL MEDIUM
&END GLOBAL
&FORCE_EVAL
  METHOD QS
    &DFT
      BASIS_SET_FILE_NAME BASIS_MOLOPT
      POTENTIAL_FILE_NAME GTH_POTENTIALS
      CHARGE 0
      &MGRID
        CUTOFF 400
        REL_CUTOFF 50
      &END MGRID
      &QS
        EPS_DEFAULT 1.0E-12
      &END QS
      &SCF
        SCF_GUESS ATOMIC
        EPS_SCF 1.0E-5
        MAX_SCF 60
        &OT ON
          MINIMIZER DIIS
          PRECONDITIONER FULL_SINGLE_INVERSE
        &END OT
        &OUTER_SCF ON
          MAX_SCF 20
          EPS_SCF 1.0E-5
        &END OUTER_SCF
      &SMEAR ON
        METHOD FERMI_DIRAC
        ELECTRONIC_TEMPERATURE [K] 500
      &END SMEAR
      ADDED_MOS 200
      &END SCF
      &XC
        &XC_FUNCTIONAL PBE
        &END XC_FUNCTIONAL
        &VDW_POTENTIAL
          POTENTIAL_TYPE PAIR_POTENTIAL
          &PAIR_POTENTIAL
            TYPE DFTD3
            PARAMETER_FILE_NAME dftd3.dat
            REFERENCE_FUNCTIONAL PBE
          &END PAIR_POTENTIAL
        &END VDW_POTENTIAL
      &END XC
    &END DFT
    &SUBSYS
      @INCLUDE 'iface_poly.coord.inc'
      &KIND Al
        BASIS_SET DZVP-MOLOPT-SR-GTH
        POTENTIAL GTH-PBE-q3
      &END KIND
      &KIND C
        BASIS_SET DZVP-MOLOPT-SR-GTH
        POTENTIAL GTH-PBE-q4
      &END KIND
      &KIND Cl
        BASIS_SET DZVP-MOLOPT-SR-GTH
        POTENTIAL GTH-PBE-q7
      &END KIND
      &KIND H
        BASIS_SET DZVP-MOLOPT-SR-GTH
        POTENTIAL GTH-PBE-q1
      &END KIND
      &KIND Mg
        BASIS_SET DZVP-MOLOPT-SR-GTH
        POTENTIAL GTH-PBE-q2
      &END KIND
      &KIND O
        BASIS_SET DZVP-MOLOPT-SR-GTH
        POTENTIAL GTH-PBE-q6
      &END KIND
    &END SUBSYS
&END FORCE_EVAL
&MOTION
  &MD
    ENSEMBLE NVT
    STEPS 10000
    TIMESTEP 1.0
    TEMPERATURE 300
    &THERMOSTAT
      TYPE NOSE
      &NOSE
        TIMECON 50.0
      &END NOSE
    &END THERMOSTAT
  &END MD
  &CONSTRAINT
    &FIXED_ATOMS
      LIST 1..32   ! bottom 2 Mg layers of the 4x4x4 slab (set exact list on node)
    &END FIXED_ATOMS
  &END CONSTRAINT
&END MOTION
! >=3 replicates per condition (independent velocities); ~10 ps each;
! chain trajectories with --dependency=afterany so one AIMD runs at a time.
