&GLOBAL
  PROJECT dirichlet_cpot
  RUN_TYPE ENERGY
  PRINT_LEVEL MEDIUM
&END GLOBAL
&FORCE_EVAL
  METHOD QS
    &DFT
      BASIS_SET_FILE_NAME BASIS_MOLOPT
      POTENTIAL_FILE_NAME GTH_POTENTIALS
      CHARGE 0
      &MGRID
        CUTOFF 400
        REL_CUTOFF 50
      &END MGRID
      &QS
        EPS_DEFAULT 1.0E-12
      &END QS
      &SCF
        SCF_GUESS ATOMIC
        EPS_SCF 1.0E-5
        MAX_SCF 60
        &OT ON
          MINIMIZER DIIS
          PRECONDITIONER FULL_SINGLE_INVERSE
        &END OT
        &OUTER_SCF ON
          MAX_SCF 20
          EPS_SCF 1.0E-5
        &END OUTER_SCF
      &SMEAR ON
        METHOD FERMI_DIRAC
        ELECTRONIC_TEMPERATURE [K] 500
      &END SMEAR
      ADDED_MOS 120
      &END SCF
      &POISSON
        POISSON_SOLVER IMPLICIT
        PERIODIC XYZ
        &IMPLICIT
          BOUNDARY_CONDITIONS MIXED_PERIODIC
          &DIRICHLET_BC
            &AA_PLANAR
              V_D 0.0          ! fixed electrode potential (scan on node)
              PARALLEL_PLANE XY
              X_XTNT 0.0 1.0
              Y_XTNT 0.0 1.0
              POSITION_OF_PLANE 2.0
            &END AA_PLANAR
          &END DIRICHLET_BC
        &END IMPLICIT
      &END POISSON
      ! ---- implicit THF solvent (SCCS) to screen the field ----
      &SCCS ON
        RELATIVE_PERMITTIVITY 7.43
        DERIVATIVE_METHOD CD3
        METHOD ANDREUSSI
      &END SCCS
      &PRINT
        &V_HARTREE_CUBE
        &END V_HARTREE_CUBE
      &END PRINT
      &XC
        &XC_FUNCTIONAL PBE
        &END XC_FUNCTIONAL
        &VDW_POTENTIAL
          POTENTIAL_TYPE PAIR_POTENTIAL
          &PAIR_POTENTIAL
            TYPE DFTD3
            PARAMETER_FILE_NAME dftd3.dat
            REFERENCE_FUNCTIONAL PBE
          &END PAIR_POTENTIAL
        &END VDW_POTENTIAL
      &END XC
    &END DFT
    &SUBSYS
      @INCLUDE 'iface_bare.coord.inc'
      &KIND Al
        BASIS_SET DZVP-MOLOPT-SR-GTH
        POTENTIAL GTH-PBE-q3
      &END KIND
      &KIND C
        BASIS_SET DZVP-MOLOPT-SR-GTH
        POTENTIAL GTH-PBE-q4
      &END KIND
      &KIND Cl
        BASIS_SET DZVP-MOLOPT-SR-GTH
        POTENTIAL GTH-PBE-q7
      &END KIND
      &KIND H
        BASIS_SET DZVP-MOLOPT-SR-GTH
        POTENTIAL GTH-PBE-q1
      &END KIND
      &KIND Mg
        BASIS_SET DZVP-MOLOPT-SR-GTH
        POTENTIAL GTH-PBE-q2
      &END KIND
      &KIND O
        BASIS_SET DZVP-MOLOPT-SR-GTH
        POTENTIAL GTH-PBE-q6
      &END KIND
    &END SUBSYS
&END FORCE_EVAL
! NOTE: scan integer slab charges CHARGE = -2,-1,0,+1,+2 (capacitance/field
! response). DIRICHLET_BC / AA_PLANAR planar electrode at fixed potential is set
! under &DFT&POISSON&IMPLICIT on the node build; validate SCCS on neutral slab
! first. Cross-compare extracted ET energetics with the CDFT/Marcus numbers.
