&GLOBAL
  PROJECT __PROJ__
  RUN_TYPE ENERGY_FORCE
  PRINT_LEVEL LOW
&END GLOBAL
! DFT force-labeling single-point for MLFF training. Same level as the clean
! interface AIMD (PBE-D3, DZVP-MOLOPT-SR-GTH + GTH-PBE, CUTOFF 400/REL 50,
! Fermi smearing 500 K for the metal). RUN_TYPE ENERGY_FORCE + &PRINT &FORCES
! dumps the per-atom forces the AIMD never wrote. Driver swaps __PROJ__ and
! the @INCLUDE coord per frame; CHARGE/cell are set by the driver per system.
&FORCE_EVAL
  METHOD QS
  &PRINT
    &FORCES ON
    &END FORCES
  &END PRINT
  &DFT
    BASIS_SET_FILE_NAME BASIS_MOLOPT
    POTENTIAL_FILE_NAME GTH_POTENTIALS
    CHARGE __CHARGE__
    &MGRID
      CUTOFF 400
      REL_CUTOFF 50
    &END MGRID
    &QS
      EPS_DEFAULT 1.0E-12
    &END QS
    &SCF
      SCF_GUESS ATOMIC
      EPS_SCF 1.0E-5
      MAX_SCF 300
      ADDED_MOS 300
      &SMEAR ON
        METHOD FERMI_DIRAC
        ELECTRONIC_TEMPERATURE [K] 500
      &END SMEAR
      &DIAGONALIZATION
        ALGORITHM STANDARD
      &END DIAGONALIZATION
      &MIXING
        ! gentle damping + deep history: the charged ANODIC poly cell (q=+1) charge-sloshes
        ! at ALPHA 0.3/NBROYDEN 8 (residual oscillates 0.004<->1.4, never reaches EPS_SCF).
        ! ALPHA 0.10/NBROYDEN 14 converges it; mixing only sets the PATH, so the converged
        ! density/forces (and label consistency vs the bare frames) are unchanged. 2026-06-21.
        METHOD BROYDEN_MIXING
        ALPHA 0.10
        NBROYDEN 14
      &END MIXING
    &END SCF
    &XC
      &XC_FUNCTIONAL PBE
      &END XC_FUNCTIONAL
      &VDW_POTENTIAL
        POTENTIAL_TYPE PAIR_POTENTIAL
        &PAIR_POTENTIAL
          TYPE DFTD3
          PARAMETER_FILE_NAME dftd3.dat
          REFERENCE_FUNCTIONAL PBE
        &END PAIR_POTENTIAL
      &END VDW_POTENTIAL
    &END XC
  &END DFT
  &SUBSYS
    @INCLUDE '__COORD__'
    &KIND Al
      BASIS_SET DZVP-MOLOPT-SR-GTH
      POTENTIAL GTH-PBE-q3
    &END KIND
    &KIND C
      BASIS_SET DZVP-MOLOPT-SR-GTH
      POTENTIAL GTH-PBE-q4
    &END KIND
    &KIND Cl
      BASIS_SET DZVP-MOLOPT-SR-GTH
      POTENTIAL GTH-PBE-q7
    &END KIND
    &KIND H
      BASIS_SET DZVP-MOLOPT-SR-GTH
      POTENTIAL GTH-PBE-q1
    &END KIND
    &KIND Mg
      BASIS_SET DZVP-MOLOPT-SR-GTH
      POTENTIAL GTH-PBE-q10
    &END KIND
    &KIND O
      BASIS_SET DZVP-MOLOPT-SR-GTH
      POTENTIAL GTH-PBE-q6
    &END KIND
    &KIND Si
      BASIS_SET DZVP-MOLOPT-SR-GTH
      POTENTIAL GTH-PBE-q4
    &END KIND
  &END SUBSYS
&END FORCE_EVAL
