&GLOBAL
  PROJECT relax_poly
  RUN_TYPE GEO_OPT
  PRINT_LEVEL LOW
  WALLTIME 36000
&END GLOBAL
&FORCE_EVAL
  METHOD QS
    &DFT
      BASIS_SET_FILE_NAME BASIS_MOLOPT
      POTENTIAL_FILE_NAME GTH_POTENTIALS
      CHARGE 0
      &MGRID
        CUTOFF 400
        REL_CUTOFF 50
      &END MGRID
      &QS
        EPS_DEFAULT 1.0E-12
      &END QS
      &SCF
        SCF_GUESS ATOMIC
        EPS_SCF 1.0E-5
        MAX_SCF 100
        ADDED_MOS 200
        &SMEAR ON
          METHOD FERMI_DIRAC
          ELECTRONIC_TEMPERATURE [K] 500
        &END SMEAR
        &DIAGONALIZATION
          ALGORITHM STANDARD
        &END DIAGONALIZATION
        &MIXING
          METHOD BROYDEN_MIXING
          ALPHA 0.2
          NBROYDEN 8
        &END MIXING
      &END SCF
      &XC
        &XC_FUNCTIONAL PBE
        &END XC_FUNCTIONAL
        &VDW_POTENTIAL
          POTENTIAL_TYPE PAIR_POTENTIAL
          &PAIR_POTENTIAL
            TYPE DFTD3
            PARAMETER_FILE_NAME dftd3.dat
            REFERENCE_FUNCTIONAL PBE
          &END PAIR_POTENTIAL
        &END VDW_POTENTIAL
      &END XC
    &END DFT
    &SUBSYS
      @INCLUDE 'iface_poly_intact.coord.inc'
      &KIND Si
        BASIS_SET DZVP-MOLOPT-SR-GTH
        POTENTIAL GTH-PBE-q4
      &END KIND
      &KIND Al
        BASIS_SET DZVP-MOLOPT-SR-GTH
        POTENTIAL GTH-PBE-q3
      &END KIND
      &KIND C
        BASIS_SET DZVP-MOLOPT-SR-GTH
        POTENTIAL GTH-PBE-q4
      &END KIND
      &KIND Cl
        BASIS_SET DZVP-MOLOPT-SR-GTH
        POTENTIAL GTH-PBE-q7
      &END KIND
      &KIND H
        BASIS_SET DZVP-MOLOPT-SR-GTH
        POTENTIAL GTH-PBE-q1
      &END KIND
      &KIND Mg
        BASIS_SET DZVP-MOLOPT-SR-GTH
        POTENTIAL GTH-PBE-q10
      &END KIND
      &KIND O
        BASIS_SET DZVP-MOLOPT-SR-GTH
        POTENTIAL GTH-PBE-q6
      &END KIND
    &END SUBSYS
&END FORCE_EVAL
&MOTION
  &GEO_OPT
    TYPE MINIMIZATION
    OPTIMIZER LBFGS
    MAX_ITER 400
    MAX_FORCE 1.0E-3
  &END GEO_OPT
  &CONSTRAINT
    &FIXED_ATOMS
      LIST 1..32
    &END FIXED_ATOMS
  &END CONSTRAINT
&END MOTION
! >=3 replicates per condition (independent velocities); ~10 ps each;
! chain trajectories with --dependency=afterany so one AIMD runs at a time.
