%chk=c1_AlPh2Cl_neu.chk
%nprocshared=16
%mem=24GB
#p B3LYP/def2SVP EmpiricalDispersion=GD3BJ opt freq SCRF=(SMD,Solvent=Tetrahydrofuran) int=ultrafine

c1_AlPh2Cl_neu

0 1
Al    52.89000000    31.64000000    48.81000000
Cl    52.95000000    33.50000000    47.77000000
C     54.74000000    31.00000000    48.70000000
C     55.21000000    30.50000000    47.43000000
C     56.55000000    30.12000000    47.32000000
C     57.37000000    30.38000000    48.39000000
C     56.92000000    30.93000000    49.60000000
C     55.55000000    31.24000000    49.77000000
H     54.68000000    30.51000000    46.49000000
H     56.84000000    29.65000000    46.39000000
H     58.42000000    30.20000000    48.21000000
H     57.49000000    31.10000000    50.50000000
H     55.21000000    31.71000000    50.68000000
C     52.30000000    31.85000000    50.77000000
C     52.90000000    32.80000000    51.57000000
C     52.41000000    33.15000000    52.86000000
C     51.31000000    32.47000000    53.43000000
C     50.62000000    31.51000000    52.61000000
C     51.13000000    31.19000000    51.31000000
H     53.78000000    33.29000000    51.18000000
H     52.92000000    33.95000000    53.37000000
H     50.98000000    32.72000000    54.43000000
H     49.69000000    31.02000000    52.88000000
H     50.55000000    30.57000000    50.65000000

