&GLOBAL
  PROJECT s_dissoc
  RUN_TYPE GEO_OPT
  PRINT_LEVEL LOW
&END GLOBAL
&FORCE_EVAL
  METHOD QS
  &DFT
    BASIS_SET_FILE_NAME BASIS_MOLOPT
    POTENTIAL_FILE_NAME GTH_POTENTIALS
    CHARGE 0
    &MGRID
      CUTOFF 400
      REL_CUTOFF 50
    &END MGRID
    &QS
      EPS_DEFAULT 1.0E-12
    &END QS
    &KPOINTS
      SCHEME MONKHORST-PACK 3 3 1
      SYMMETRY OFF
      FULL_GRID OFF
    &END KPOINTS
    &SCF
      SCF_GUESS ATOMIC
      EPS_SCF 1.0E-5
      MAX_SCF 400
      ADDED_MOS 120
      &SMEAR ON
        METHOD FERMI_DIRAC
        ELECTRONIC_TEMPERATURE [K] 300
      &END SMEAR
      &DIAGONALIZATION ON
        ALGORITHM STANDARD
      &END DIAGONALIZATION
      &MIXING ON
        METHOD BROYDEN_MIXING
        ALPHA 0.3
        NBROYDEN 8
      &END MIXING
    &END SCF
    &XC
      &XC_FUNCTIONAL PBE
      &END XC_FUNCTIONAL
      &VDW_POTENTIAL
        POTENTIAL_TYPE PAIR_POTENTIAL
        &PAIR_POTENTIAL
          TYPE DFTD3
          PARAMETER_FILE_NAME dftd3.dat
          REFERENCE_FUNCTIONAL PBE
        &END PAIR_POTENTIAL
      &END VDW_POTENTIAL
    &END XC
  &END DFT
  &SUBSYS
    &CELL
      ABC 12.8360 11.1163 32.0000
      ALPHA_BETA_GAMMA 90 90 90
      PERIODIC XYZ
    &END CELL
    &COORD
        Mg       0.000000      0.000000      0.000000
        Mg       1.604500      2.779076      0.000000
        Mg       3.209000      0.000000      0.000000
        Mg       4.813500      2.779076      0.000000
        Mg       0.000000      5.558151      0.000000
        Mg       1.604500      8.337227      0.000000
        Mg       3.209000      5.558151      0.000000
        Mg       4.813500      8.337227      0.000000
        Mg       6.418000      0.000000      0.000000
        Mg       8.022500      2.779076      0.000000
        Mg       9.627000      0.000000      0.000000
        Mg      11.231500      2.779076      0.000000
        Mg       6.418000      5.558151      0.000000
        Mg       8.022500      8.337227      0.000000
        Mg       9.627000      5.558151      0.000000
        Mg      11.231500      8.337227      0.000000
        Mg       2.139333      1.852717      2.605500
        Mg       3.743833      4.631793      2.605500
        Mg       5.348333      1.852717      2.605500
        Mg       6.952833      4.631793      2.605500
        Mg       2.139333      7.410868      2.605500
        Mg       3.743833     10.189944      2.605500
        Mg       5.348333      7.410868      2.605500
        Mg       6.952833     10.189944      2.605500
        Mg       8.557333      1.852717      2.605500
        Mg      10.161833      4.631793      2.605500
        Mg      11.766333      1.852717      2.605500
        Mg       0.534833      4.631793      2.605500
        Mg       8.557333      7.410868      2.605500
        Mg      10.161833     10.189944      2.605500
        Mg      11.766333      7.410868      2.605500
        Mg       0.534833     10.189944      2.605500
        Mg       0.000000      0.000000      5.211000
        Mg       1.604500      2.779076      5.211000
        Mg       3.209000      0.000000      5.211000
        Mg       4.813500      2.779076      5.211000
        Mg       0.000000      5.558151      5.211000
        Mg       1.604500      8.337227      5.211000
        Mg       3.209000      5.558151      5.211000
        Mg       4.813500      8.337227      5.211000
        Mg       6.418000      0.000000      5.211000
        Mg       8.022500      2.779076      5.211000
        Mg       9.627000      0.000000      5.211000
        Mg      11.231500      2.779076      5.211000
        Mg       6.418000      5.558151      5.211000
        Mg       8.022500      8.337227      5.211000
        Mg       9.627000      5.558151      5.211000
        Mg      11.231500      8.337227      5.211000
        Mg       2.139333      1.852717      7.816500
        Mg       3.743833      4.631793      7.816500
        Mg       5.348333      1.852717      7.816500
        Mg       6.952833      4.631793      7.816500
        Mg       2.139333      7.410868      7.816500
        Mg       3.743833     10.189944      7.816500
        Mg       5.348333      7.410868      7.816500
        Mg       6.952833     10.189944      7.816500
        Mg       8.557333      1.852717      7.816500
        Mg      10.161833      4.631793      7.816500
        Mg      11.766333      1.852717      7.816500
        Mg       0.534833      4.631793      7.816500
        Mg       8.557333      7.410868      7.816500
        Mg      10.161833     10.189944      7.816500
        Mg      11.766333      7.410868      7.816500
        Mg       0.534833     10.189944      7.816500
        Al       5.818000      5.158151     10.166500
        Cl       7.368000      6.058151     10.716500
        Cl       4.818000      6.758151     10.716500
        Cl       8.918000      7.008151      9.266500
    &END COORD
    &KIND Mg
      BASIS_SET DZVP-MOLOPT-SR-GTH
      POTENTIAL GTH-PBE-q10
    &END KIND
    &KIND Al
      BASIS_SET DZVP-MOLOPT-SR-GTH
      POTENTIAL GTH-PBE-q3
    &END KIND
    &KIND Cl
      BASIS_SET DZVP-MOLOPT-SR-GTH
      POTENTIAL GTH-PBE-q7
    &END KIND
  &END SUBSYS
&END FORCE_EVAL
&MOTION
  &GEO_OPT
    OPTIMIZER BFGS
    MAX_ITER 80
    MAX_FORCE 1.0E-3
    &BFGS
      TRUST_RADIUS [bohr] 0.15
    &END BFGS
  &END GEO_OPT
  &CONSTRAINT
    &FIXED_ATOMS
      LIST 1..64
    &END FIXED_ATOMS
  &END CONSTRAINT
&END MOTION
