%oldchk=AlCl3_opt.chk
%chk=AlCl3_ox_vert.chk
%nprocshared=8
%mem=14GB
#p B3LYP/def2TZVP EmpiricalDispersion=GD3BJ SCRF=(SMD,Solvent=Tetrahydrofuran) int=ultrafine geom=check guess=read

AlCl3 vertical ox (q=+1)

1 2

