%oldchk=AlCl4m_opt.chk
%chk=AlCl4m_red_m062x.chk
%nprocshared=8
%mem=14GB
#p M062X/def2TZVP EmpiricalDispersion=GD3BJ SCRF=(SMD,Solvent=Tetrahydrofuran) int=ultrafine geom=check guess=read

AlCl4m red m062x SP

-2 2

