%oldchk=AlCl4m_opt.chk
%chk=AlCl4m_ox_adia.chk
%nprocshared=8
%mem=14GB
#p B3LYP/def2SVP EmpiricalDispersion=GD3BJ opt freq SCRF=(SMD,Solvent=Tetrahydrofuran) int=ultrafine geom=check guess=read

AlCl4m adiabatic ox opt

0 2

