%oldchk=AlCl3_opt.chk
%chk=AlCl3_red_adia.chk
%nprocshared=8
%mem=14GB
#p B3LYP/def2SVP EmpiricalDispersion=GD3BJ opt freq SCRF=(SMD,Solvent=Tetrahydrofuran) int=ultrafine geom=check guess=read

AlCl3 adiabatic red opt

-1 2

