%oldchk=AlCl4m_opt.chk
%chk=AlCl4m_ox_wb97xd.chk
%nprocshared=8
%mem=14GB
#p wB97XD/def2TZVP SCRF=(SMD,Solvent=Tetrahydrofuran) int=ultrafine geom=check guess=read

AlCl4m ox wb97xd SP

0 2

