%oldchk=AlCl4m_opt.chk
%chk=AlCl4m_ox_vert.chk
%nprocshared=8
%mem=14GB
#p B3LYP/def2TZVP EmpiricalDispersion=GD3BJ SCRF=(SMD,Solvent=Tetrahydrofuran) int=ultrafine geom=check guess=read

AlCl4m vertical ox (q=+0)

0 2

