%oldchk=AlCl4m_opt.chk
%chk=AlCl4m_red_tzvpd.chk
%nprocshared=8
%mem=14GB
#p B3LYP/def2TZVPD EmpiricalDispersion=GD3BJ SCRF=(SMD,Solvent=Tetrahydrofuran) int=ultrafine geom=check guess=read

AlCl4m EA diffuse def2-TZVPD

-2 2

