%oldchk=AlPhCl3m_opt.chk
%chk=AlPhCl3m_ox_m062x.chk
%nprocshared=16
%mem=24GB
#p M062X/def2TZVP EmpiricalDispersion=GD3BJ SCRF=(SMD,Solvent=Tetrahydrofuran) int=ultrafine geom=check guess=read

AlPhCl3m ox m062x SP

0 2

