%oldchk=AlPh4m_opt.chk
%chk=AlPh4m_red_adia.chk
%nprocshared=24
%mem=48GB
#p B3LYP/def2SVP EmpiricalDispersion=GD3BJ opt freq SCRF=(SMD,Solvent=Tetrahydrofuran) int=ultrafine geom=check guess=read

AlPh4m adiabatic red opt

-2 2

