%oldchk=AlPh4m_opt.chk
%chk=AlPh4m_ox_wb97xd.chk
%nprocshared=24
%mem=48GB
#p wB97XD/def2TZVP SCRF=(SMD,Solvent=Tetrahydrofuran) int=ultrafine geom=check guess=read

AlPh4m ox wb97xd SP

0 2

