%oldchk=AlPh3_opt.chk
%chk=AlPh3_ox_vert.chk
%nprocshared=16
%mem=24GB
#p B3LYP/def2TZVP EmpiricalDispersion=GD3BJ SCRF=(SMD,Solvent=Tetrahydrofuran) int=ultrafine geom=check guess=read

AlPh3 vertical ox (q=+1)

1 2

