%oldchk=AlPh2Cl2m_opt.chk
%chk=AlPh2Cl2m_ox_wb97xd.chk
%nprocshared=16
%mem=24GB
#p wB97XD/def2TZVP SCRF=(SMD,Solvent=Tetrahydrofuran) int=ultrafine geom=check guess=read

AlPh2Cl2m ox wb97xd SP

0 2

