%oldchk=AlPh3Clm_opt.chk
%chk=AlPh3Clm_ox_wb97xd.chk
%nprocshared=16
%mem=24GB
#p wB97XD/def2TZVP SCRF=(SMD,Solvent=Tetrahydrofuran) int=ultrafine geom=check guess=read

AlPh3Clm ox wb97xd SP

0 2

