%oldchk=AlPh3Clm_opt.chk
%chk=AlPh3Clm_ox_adia.chk
%nprocshared=16
%mem=24GB
#p B3LYP/def2SVP EmpiricalDispersion=GD3BJ opt freq SCRF=(SMD,Solvent=Tetrahydrofuran) int=ultrafine geom=check guess=read

AlPh3Clm adiabatic ox opt

0 2

