%oldchk=AlPh2Cl2m_opt.chk
%chk=AlPh2Cl2m_ox_vert.chk
%nprocshared=16
%mem=24GB
#p B3LYP/def2TZVP EmpiricalDispersion=GD3BJ SCRF=(SMD,Solvent=Tetrahydrofuran) int=ultrafine geom=check guess=read

AlPh2Cl2m vertical ox (q=+0)

0 2

