%oldchk=AlPh4m_opt.chk
%chk=AlPh4m_red_wb97xd.chk
%nprocshared=24
%mem=48GB
#p wB97XD/def2TZVP SCRF=(SMD,Solvent=Tetrahydrofuran) int=ultrafine geom=check guess=read

AlPh4m red wb97xd SP

-2 2

