%oldchk=AlPhCl3m_opt.chk
%chk=AlPhCl3m_ox_wb97xd.chk
%nprocshared=16
%mem=24GB
#p wB97XD/def2TZVP SCRF=(SMD,Solvent=Tetrahydrofuran) int=ultrafine geom=check guess=read

AlPhCl3m ox wb97xd SP

0 2

