%oldchk=AlPh3Clm_opt.chk
%chk=AlPh3Clm_red_vert.chk
%nprocshared=16
%mem=24GB
#p B3LYP/def2TZVP EmpiricalDispersion=GD3BJ SCRF=(SMD,Solvent=Tetrahydrofuran) int=ultrafine geom=check guess=read

AlPh3Clm vertical red (q=-2)

-2 2

