%oldchk=AlPhCl3m_opt.chk
%chk=AlPhCl3m_red_wb97xd.chk
%nprocshared=16
%mem=24GB
#p wB97XD/def2TZVP SCRF=(SMD,Solvent=Tetrahydrofuran) int=ultrafine geom=check guess=read

AlPhCl3m red wb97xd SP

-2 2

