%oldchk=AlPhCl3m_opt.chk
%chk=AlPhCl3m_ox_adia.chk
%nprocshared=16
%mem=24GB
#p B3LYP/def2SVP EmpiricalDispersion=GD3BJ opt freq SCRF=(SMD,Solvent=Tetrahydrofuran) int=ultrafine geom=check guess=read

AlPhCl3m adiabatic ox opt

0 2

