%oldchk=AlPh2Cl2m_opt.chk
%chk=AlPh2Cl2m_red_adia.chk
%nprocshared=16
%mem=24GB
#p B3LYP/def2SVP EmpiricalDispersion=GD3BJ opt freq SCRF=(SMD,Solvent=Tetrahydrofuran) int=ultrafine geom=check guess=read

AlPh2Cl2m adiabatic red opt

-2 2

