%oldchk=AlPh2Cl2m_opt.chk
%chk=AlPh2Cl2m_red_m062x.chk
%nprocshared=16
%mem=24GB
#p M062X/def2TZVP EmpiricalDispersion=GD3BJ SCRF=(SMD,Solvent=Tetrahydrofuran) int=ultrafine geom=check guess=read

AlPh2Cl2m red m062x SP

-2 2

