%oldchk=AlPh3_opt.chk
%chk=AlPh3_red_wb97xd.chk
%nprocshared=16
%mem=24GB
#p wB97XD/def2TZVP SCRF=(SMD,Solvent=Tetrahydrofuran) int=ultrafine geom=check guess=read

AlPh3 red wb97xd SP

-1 2

