%oldchk=AlPh3Clm_opt.chk
%chk=AlPh3Clm_red_m062x.chk
%nprocshared=16
%mem=24GB
#p M062X/def2TZVP EmpiricalDispersion=GD3BJ SCRF=(SMD,Solvent=Tetrahydrofuran) int=ultrafine geom=check guess=read

AlPh3Clm red m062x SP

-2 2

