%oldchk=AlPhCl3m_opt.chk
%chk=AlPhCl3m_red_vert.chk
%nprocshared=16
%mem=24GB
#p B3LYP/def2TZVP EmpiricalDispersion=GD3BJ SCRF=(SMD,Solvent=Tetrahydrofuran) int=ultrafine geom=check guess=read

AlPhCl3m vertical red (q=-2)

-2 2

