%chk=AlPh2Cl2m_red_AlClscan.chk
%nprocshared=16
%mem=24GB
#p B3LYP/def2SVP EmpiricalDispersion=GD3BJ opt=modredundant SCRF=(SMD,Solvent=Tetrahydrofuran) int=ultrafine

AlPh2Cl2m+e- Al-Cl cleavage scan

-2 2
Al      52.890000      31.640000      48.810000
Cl      51.420000      30.330000      47.830000
Cl      52.950000      33.500000      47.770000
C       54.740000      31.000000      48.700000
C       55.210000      30.500000      47.430000
C       56.550000      30.120000      47.320000
C       57.370000      30.380000      48.390000
C       56.920000      30.930000      49.600000
C       55.550000      31.240000      49.770000
H       54.680000      30.510000      46.490000
H       56.840000      29.650000      46.390000
H       58.420000      30.200000      48.210000
H       57.490000      31.100000      50.500000
H       55.210000      31.710000      50.680000
C       52.300000      31.850000      50.770000
C       52.900000      32.800000      51.570000
C       52.410000      33.150000      52.860000
C       51.310000      32.470000      53.430000
C       50.620000      31.510000      52.610000
C       51.130000      31.190000      51.310000
H       53.780000      33.290000      51.180000
H       52.920000      33.950000      53.370000
H       50.980000      32.720000      54.430000
H       49.690000      31.020000      52.880000
H       50.550000      30.570000      50.650000

B 1 2 S 10 0.10

