%oldchk=AlPh3_opt.chk
%chk=AlPh3_red_adia.chk
%nprocshared=16
%mem=24GB
#p B3LYP/def2SVP EmpiricalDispersion=GD3BJ opt freq SCRF=(SMD,Solvent=Tetrahydrofuran) int=ultrafine geom=check guess=read

AlPh3 adiabatic red opt

-1 2

