%oldchk=Mg2Cl3_THF6_cation_opt.chk
%chk=Mg2Cl3_THF6_cation_red_vert.chk
%nprocshared=24
%mem=48GB
#p B3LYP/def2TZVP EmpiricalDispersion=GD3BJ SCRF=(SMD,Solvent=Tetrahydrofuran) int=ultrafine geom=check guess=read

Mg2Cl3_THF6_cation vertical red (q=+0)

0 2

