! B3LYP def2-TZVP TightSCF Opt
%pal nprocs 6 end
* xyz 0 1
Al     0.000000     0.000000     0.000000
F      1.630000     0.000000     0.000000
F     -0.815000     1.411621     0.000000
F     -0.815000    -1.411621     0.000000
*
