! B3LYP def2-TZVP TightSCF Opt
%pal nprocs 6 end
* xyz 0 1
Al     0.000000     0.000000     0.000000
H      1.580000     0.000000     0.000000
H     -0.790000     1.368320     0.000000
H     -0.790000    -1.368320     0.000000
*
