! B3LYP def2-TZVP TightSCF Opt
%pal nprocs 6 end
* xyz 0 1
Al     0.000000     0.000000     0.000000
O      1.710000     0.000000     0.000000
O     -0.855000     1.480903     0.000000
O     -0.855000    -1.480903     0.000000
H      2.680000     0.000000     0.582000
H     -1.340000     2.320948     0.582000
H     -1.340000    -2.320948     0.582000
*
