! B3LYP def2-TZVP TightSCF Opt
%pal nprocs 6 end
* xyz 0 1
Si     0.000000     0.000000     0.000000
H      0.854478     0.854478     0.854478
H     -0.854478    -0.854478     0.854478
H      0.854478    -0.854478    -0.854478
H     -0.854478     0.854478    -0.854478
*
