! B3LYP def2-TZVP TightSCF Opt
%pal nprocs 6 end
* xyz 0 1
Si     0.000000     0.000000     0.000000
O      0.941081     0.941081     0.941081
O     -0.941081    -0.941081     0.941081
O      0.941081    -0.941081    -0.941081
O     -0.941081     0.941081    -0.941081
H      1.501111     1.501111     2.083111
H     -1.501111    -1.501111     2.083111
H      1.501111    -1.501111    -0.919111
H     -1.501111     1.501111    -0.919111
*
