%oldchk=polyether.chk
%chk=polyether_ramanopt.chk
%nprocshared=16
%mem=24GB
#p B3LYP/def2TZVP EmpiricalDispersion=GD3BJ opt freq SCRF=(SMD,Solvent=Tetrahydrofuran) int=ultrafine geom=check guess=read

polyether opt/freq SMD (restart)

0 1

