%oldchk=POSS_cage.chk
%chk=POSS_cage_ramanopt.chk
%nprocshared=16
%mem=24GB
#p B3LYP/def2TZVP EmpiricalDispersion=GD3BJ opt freq SCRF=(SMD,Solvent=Tetrahydrofuran) int=ultrafine geom=check guess=read

POSS_cage opt/freq SMD (restart)

0 1

