%oldchk=POSS_cage_ramanopt.chk
%chk=POSS_cage_ramangas.chk
%nprocshared=16
%mem=24GB
#p B3LYP/def2TZVP EmpiricalDispersion=GD3BJ freq=raman int=ultrafine geom=check guess=read

POSS_cage gas-phase Raman activities

0 1

