%chk=Mg_disiloxane.chk
%nprocshared=8
%mem=14GB
#p B3LYP/def2SVP EmpiricalDispersion=GD3BJ opt SCRF=(SMD,Solvent=Tetrahydrofuran) int=ultrafine

Mg_disiloxane

2 1
Mg 0.0 0.0 -2.05
O 0.0 0.0 0.0
Si 0.0 1.48 0.80
Si 0.0 -1.48 0.80
H 1.18 1.55 1.62
H -1.18 1.55 1.62
H 0.0 2.55 -0.18
H 1.18 -1.55 1.62
H -1.18 -1.55 1.62
H 0.0 -2.55 -0.18

