&GLOBAL
  PROJECT GeO2_d2
  RUN_TYPE ENERGY
  PRINT_LEVEL MEDIUM
&END GLOBAL
&FORCE_EVAL
  METHOD QS
  &DFT
    BASIS_SET_FILE_NAME BASIS_MOLOPT
    POTENTIAL_FILE_NAME GTH_POTENTIALS
    CHARGE 0
    &MGRID
      CUTOFF 400
      REL_CUTOFF 50
    &END MGRID
    &QS
      EPS_DEFAULT 1.0E-12
    &END QS
    &KPOINTS
      SCHEME MONKHORST-PACK 4 4 4
      SYMMETRY OFF
      FULL_GRID OFF
      PARALLEL_GROUP_SIZE -1
    &END KPOINTS
    &PRINT
      &MO
        EIGENVALUES .TRUE.
        OCCUPATION_NUMBERS .TRUE.
        &EACH
          QS_SCF 0
        &END EACH
      &END MO
    &END PRINT
    &SCF
      SCF_GUESS ATOMIC
      EPS_SCF 1.0E-6
      MAX_SCF 400
      ADDED_MOS 60
      &SMEAR ON
        METHOD FERMI_DIRAC
        ELECTRONIC_TEMPERATURE [K] 300
      &END SMEAR
      &DIAGONALIZATION ON
        ALGORITHM STANDARD
      &END DIAGONALIZATION
      &MIXING ON
        METHOD BROYDEN_MIXING
        ALPHA 0.3
        NBROYDEN 8
      &END MIXING
    &END SCF
    &XC
      &XC_FUNCTIONAL PBE
      &END XC_FUNCTIONAL
      &VDW_POTENTIAL
        POTENTIAL_TYPE PAIR_POTENTIAL
        &PAIR_POTENTIAL
          TYPE DFTD3
          PARAMETER_FILE_NAME dftd3.dat
          REFERENCE_FUNCTIONAL PBE
        &END PAIR_POTENTIAL
      &END VDW_POTENTIAL
    &END XC
  &END DFT
          &SUBSYS
    &CELL
      A 4.395 0 0
      B 0 4.395 0
      C 0 0 2.86
      PERIODIC XYZ
    &END CELL
    &COORD
      Ge 0.00000 0.00000 0.00000
      Ge 2.19750 2.19750 1.43000
      O 1.34926 1.34926 0.00000
      O 3.04574 3.04574 0.00000
      O 3.54676 0.84823 1.43000
      O 0.84823 3.54676 1.43000
      SCALED F
    &END COORD
    &KIND "Ge"
      BASIS_SET "DZVP-MOLOPT-SR-GTH"
      POTENTIAL "GTH-PBE-q4"
    &END KIND
    &KIND "O"
      BASIS_SET "DZVP-MOLOPT-SR-GTH"
      POTENTIAL "GTH-PBE-q6"
    &END KIND
  &END SUBSYS
&END FORCE_EVAL
