&GLOBAL
  PROJECT PON_kp
  RUN_TYPE ENERGY
  PRINT_LEVEL MEDIUM
&END GLOBAL
&FORCE_EVAL
  METHOD QS
  &DFT
    BASIS_SET_FILE_NAME BASIS_MOLOPT
    POTENTIAL_FILE_NAME GTH_POTENTIALS
    CHARGE 0
    &MGRID
      CUTOFF 400
      REL_CUTOFF 50
    &END MGRID
    &QS
      EPS_DEFAULT 1.0E-12
    &END QS
    &KPOINTS
      SCHEME MONKHORST-PACK 4 4 4
      SYMMETRY OFF
      FULL_GRID OFF
      PARALLEL_GROUP_SIZE -1
    &END KPOINTS
    &PRINT
      &MO
        EIGENVALUES .TRUE.
        OCCUPATION_NUMBERS .TRUE.
        &EACH
          QS_SCF 0
        &END EACH
      &END MO
    &END PRINT
    &SCF
      SCF_GUESS ATOMIC
      EPS_SCF 1.0E-6
      MAX_SCF 400
      ADDED_MOS 80
      &SMEAR ON
        METHOD FERMI_DIRAC
        ELECTRONIC_TEMPERATURE [K] 300
      &END SMEAR
      &DIAGONALIZATION ON
        ALGORITHM STANDARD
      &END DIAGONALIZATION
      &MIXING ON
        METHOD BROYDEN_MIXING
        ALPHA 0.3
        NBROYDEN 8
      &END MIXING
    &END SCF
    &XC
      &XC_FUNCTIONAL PBE
      &END XC_FUNCTIONAL
      &VDW_POTENTIAL
        POTENTIAL_TYPE PAIR_POTENTIAL
        &PAIR_POTENTIAL
          TYPE DFTD3
          PARAMETER_FILE_NAME dftd3.dat
          REFERENCE_FUNCTIONAL PBE
        &END PAIR_POTENTIAL
      &END VDW_POTENTIAL
    &END XC
  &END DFT
  &SUBSYS
    &CELL
      A 4.805695 0.000000 0.000000
      B -2.402848 4.161854 0.000000
      C 0.000000 0.000000 5.293055
      PERIODIC XYZ
    &END CELL
    &COORD
      P 2.12609 0.03433 1.78073
      P -1.16716 1.96310 3.52384
      P 1.29916 2.23719 0.06222
      N 1.23136 1.22323 1.30945
      O 3.32569 0.48001 2.89466
      N 2.65612 2.54567 4.63326
      O 0.23598 1.53002 4.22612
      N -1.12117 3.02035 2.32817
      O 0.76375 3.67804 0.48696
      SCALED F
    &END COORD
    &KIND "P"
      BASIS_SET "DZVP-MOLOPT-SR-GTH"
      POTENTIAL "GTH-PBE-q5"
    &END KIND
    &KIND "N"
      BASIS_SET "DZVP-MOLOPT-SR-GTH"
      POTENTIAL "GTH-PBE-q5"
    &END KIND
    &KIND "O"
      BASIS_SET "DZVP-MOLOPT-SR-GTH"
      POTENTIAL "GTH-PBE-q6"
    &END KIND
  &END SUBSYS
&END FORCE_EVAL
