&GLOBAL
  PROJECT PSiOx_kp
  RUN_TYPE ENERGY
  PRINT_LEVEL MEDIUM
&END GLOBAL
&FORCE_EVAL
  METHOD QS
  &DFT
    BASIS_SET_FILE_NAME BASIS_MOLOPT
    POTENTIAL_FILE_NAME GTH_POTENTIALS
    CHARGE 0
    &MGRID
      CUTOFF 400
      REL_CUTOFF 50
    &END MGRID
    &QS
      EPS_DEFAULT 1.0E-12
    &END QS
    &KPOINTS
      SCHEME MONKHORST-PACK 4 4 4
      SYMMETRY OFF
      FULL_GRID OFF
      PARALLEL_GROUP_SIZE -1
    &END KPOINTS
    &PRINT
      &MO
        EIGENVALUES .TRUE.
        OCCUPATION_NUMBERS .TRUE.
        &EACH
          QS_SCF 0
        &END EACH
      &END MO
    &END PRINT
    &SCF
      SCF_GUESS ATOMIC
      EPS_SCF 1.0E-6
      MAX_SCF 400
      ADDED_MOS 80
      &SMEAR ON
        METHOD FERMI_DIRAC
        ELECTRONIC_TEMPERATURE [K] 300
      &END SMEAR
      &DIAGONALIZATION ON
        ALGORITHM STANDARD
      &END DIAGONALIZATION
      &MIXING ON
        METHOD BROYDEN_MIXING
        ALPHA 0.3
        NBROYDEN 8
      &END MIXING
    &END SCF
    &XC
      &XC_FUNCTIONAL PBE
      &END XC_FUNCTIONAL
      &VDW_POTENTIAL
        POTENTIAL_TYPE PAIR_POTENTIAL
        &PAIR_POTENTIAL
          TYPE DFTD3
          PARAMETER_FILE_NAME dftd3.dat
          REFERENCE_FUNCTIONAL PBE
        &END PAIR_POTENTIAL
      &END VDW_POTENTIAL
    &END XC
  &END DFT
  &SUBSYS
    &CELL
      A 4.805695 0.000000 0.000000
      B -2.402848 4.161854 0.000000
      C 0.000000 0.000000 5.293055
      PERIODIC XYZ
    &END CELL
    &COORD
      Si 2.26796 -0.22551 1.93610
      Si -1.23673 2.03677 3.76681
      P 1.17198 2.05117 0.37559
      O 1.22346 0.49922 0.83054
      O 3.20918 0.83368 2.73565
      O 2.71535 2.21194 5.19447
      O 0.24483 1.66377 4.38585
      O -1.35724 3.45703 2.99039
      O 0.96314 3.74686 0.16140
      O 0.67858 2.43796 1.89409
      H 1.86449 4.12595 0.31766
      SCALED F
    &END COORD
    &KIND "Si"
      BASIS_SET "DZVP-MOLOPT-SR-GTH"
      POTENTIAL "GTH-PBE-q4"
    &END KIND
    &KIND "P"
      BASIS_SET "DZVP-MOLOPT-SR-GTH"
      POTENTIAL "GTH-PBE-q5"
    &END KIND
    &KIND "O"
      BASIS_SET "DZVP-MOLOPT-SR-GTH"
      POTENTIAL "GTH-PBE-q6"
    &END KIND
    &KIND "H"
      BASIS_SET "DZVP-MOLOPT-SR-GTH"
      POTENTIAL "GTH-PBE-q1"
    &END KIND
  &END SUBSYS
&END FORCE_EVAL
