&GLOBAL
  PROJECT mg22_fcc
  RUN_TYPE ENERGY
  PRINT_LEVEL LOW
&END GLOBAL
&FORCE_EVAL
  METHOD QS
    &DFT
      BASIS_SET_FILE_NAME BASIS_MOLOPT
      POTENTIAL_FILE_NAME GTH_POTENTIALS
      CHARGE 0
      &MGRID
        CUTOFF 400
        REL_CUTOFF 50
      &END MGRID
      &QS
        EPS_DEFAULT 1.0E-12
      &END QS
      &SCF
        SCF_GUESS ATOMIC
        EPS_SCF 1.0E-5
        MAX_SCF 300
        ADDED_MOS 40
        &SMEAR ON
          METHOD FERMI_DIRAC
          ELECTRONIC_TEMPERATURE [K] 300
        &END SMEAR
        &DIAGONALIZATION ON
          ALGORITHM STANDARD
        &END DIAGONALIZATION
        &MIXING ON
          METHOD BROYDEN_MIXING
          ALPHA 0.3
          NBROYDEN 8
        &END MIXING
      &END SCF
      &XC
        &XC_FUNCTIONAL PBE
        &END XC_FUNCTIONAL
        &VDW_POTENTIAL
          POTENTIAL_TYPE PAIR_POTENTIAL
          &PAIR_POTENTIAL
            TYPE DFTD3
            PARAMETER_FILE_NAME dftd3.dat
            REFERENCE_FUNCTIONAL PBE
          &END PAIR_POTENTIAL
        &END VDW_POTENTIAL
      &END XC
    &END DFT
    &SUBSYS
      &CELL
        ABC 6.4180 5.5582 30.0000
        PERIODIC XYZ
      &END CELL
      &COORD
        Mg     0.000000     0.000000     0.000000
        Mg     1.604500     2.779076     0.000000
        Mg     3.209000     0.000000     0.000000
        Mg     4.813500     2.779076     0.000000
        Mg     2.139333     1.852717     2.605500
        Mg     3.743833     4.631793     2.605500
        Mg     5.348333     1.852717     2.605500
        Mg     6.952833     4.631793     2.605500
        Mg     0.000000     0.000000     5.211000
        Mg     1.604500     2.779076     5.211000
        Mg     3.209000     0.000000     5.211000
        Mg     4.813500     2.779076     5.211000
        Mg     2.139333     1.852717     7.816500
        Mg     3.743833     4.631793     7.816500
        Mg     5.348333     1.852717     7.816500
        Mg     6.952833     4.631793     7.816500
        Mg     4.278667     3.705434    10.422000
      &END COORD
      &KIND Mg
        BASIS_SET DZVP-MOLOPT-SR-GTH
        POTENTIAL GTH-PBE-q10
      &END KIND
    &END SUBSYS
&END FORCE_EVAL
