&GLOBAL
  PROJECT mg_fcc
  RUN_TYPE GEO_OPT
  PRINT_LEVEL MEDIUM
&END GLOBAL
&FORCE_EVAL
  METHOD QS
    &DFT
      BASIS_SET_FILE_NAME BASIS_MOLOPT
      POTENTIAL_FILE_NAME GTH_POTENTIALS
      CHARGE 0
      &MGRID
        CUTOFF 400
        REL_CUTOFF 50
      &END MGRID
      &QS
        EPS_DEFAULT 1.0E-12
      &END QS
      &SCF
        SCF_GUESS ATOMIC
        EPS_SCF 1.0E-5
        MAX_SCF 300
        ADDED_MOS 80
        &SMEAR ON
          METHOD FERMI_DIRAC
          ELECTRONIC_TEMPERATURE [K] 500
        &END SMEAR
        &DIAGONALIZATION ON
          ALGORITHM STANDARD
        &END DIAGONALIZATION
        &MIXING ON
          METHOD BROYDEN_MIXING
          ALPHA 0.3
          NBROYDEN 8
        &END MIXING
      &END SCF
      &XC
        &XC_FUNCTIONAL PBE
        &END XC_FUNCTIONAL
        &VDW_POTENTIAL
          POTENTIAL_TYPE PAIR_POTENTIAL
          &PAIR_POTENTIAL
            TYPE DFTD3
            PARAMETER_FILE_NAME dftd3.dat
            REFERENCE_FUNCTIONAL PBE
          &END PAIR_POTENTIAL
        &END VDW_POTENTIAL
      &END XC
    &END DFT
    &PROPERTIES
      &RESP OFF
      &END RESP
    &END PROPERTIES
    &SUBSYS
      @INCLUDE 'mg_fcc.coord.inc'
      &KIND Mg
        BASIS_SET DZVP-MOLOPT-SR-GTH
        POTENTIAL GTH-PBE-q10
      &END KIND
    &END SUBSYS
&END FORCE_EVAL
&MOTION
  &GEO_OPT
    OPTIMIZER BFGS
    MAX_ITER 300
  &END GEO_OPT
  &CONSTRAINT
    &FIXED_ATOMS
      ! fix bottom two Mg layers (set indices on node from the slab geometry)
      LIST 1..18
    &END FIXED_ATOMS
  &END CONSTRAINT
&END MOTION
