%oldchk=AlCl4m_opt.chk
%chk=AlCl4m_tzvp.chk
%nprocshared=8
%mem=14GB
#p B3LYP/def2TZVP EmpiricalDispersion=GD3BJ SCRF=(SMD,Solvent=Tetrahydrofuran) int=ultrafine geom=check guess=read

AlCl4m def2-TZVP SP

-1 1

