%oldchk=AlPhCl3m_opt.chk
%chk=AlPhCl3m_tzvp.chk
%nprocshared=16
%mem=24GB
#p B3LYP/def2TZVP EmpiricalDispersion=GD3BJ SCRF=(SMD,Solvent=Tetrahydrofuran) int=ultrafine geom=check guess=read

AlPhCl3m def2-TZVP SP

-1 1

