%oldchk=AlPh3Clm_opt.chk
%chk=AlPh3Clm_tzvp.chk
%nprocshared=16
%mem=24GB
#p B3LYP/def2TZVP EmpiricalDispersion=GD3BJ SCRF=(SMD,Solvent=Tetrahydrofuran) int=ultrafine geom=check guess=read

AlPh3Clm def2-TZVP SP

-1 1

