%oldchk=ANI.chk
%chk=AlPh2Cl2m_opt.chk
%nprocshared=16
%mem=24GB
#p B3LYP/def2SVP EmpiricalDispersion=GD3BJ opt freq SCRF=(SMD,Solvent=Tetrahydrofuran) int=ultrafine geom=check guess=read

AlPh2Cl2m opt/freq (restart)

-1 1

