%chk=AlPhCl3m_opt.chk
%nprocshared=16
%mem=24GB
#p B3LYP/def2SVP EmpiricalDispersion=GD3BJ opt freq SCRF=(SMD,Solvent=Tetrahydrofuran) int=ultrafine

AlPhCl3m opt/freq SVP

-1 1
Al       0.000000       0.000000       0.000000
C        1.137380       1.137380       1.137380
C        2.473618       1.433955       0.678783
C        3.258080       2.306938       1.436820
C        2.655786       2.938578       2.496618
C        1.332951       2.696619       2.897444
C        0.544967       1.749497       2.201786
H        2.909316       1.168806      -0.272250
H        4.287126       2.420935       1.123819
H        3.254393       3.705750       2.966104
H        0.817756       3.103955       3.753278
H       -0.487923       1.598708       2.475650
Cl       1.241303      -1.241303      -1.241303
Cl      -1.241303       1.241303      -1.241303
Cl      -1.241303      -1.241303       1.241303

