%chk=AlPh4m_opt.chk
%nprocshared=24
%mem=48GB
#p B3LYP/def2SVP EmpiricalDispersion=GD3BJ opt freq SCRF=(SMD,Solvent=Tetrahydrofuran) int=ultrafine

AlPh4m opt/freq SVP

-1 1
Al       0.000000       0.000000       0.000000
C        1.137380       1.137380       1.137380
C        2.473618       1.433955       0.678783
C        3.258080       2.306938       1.436820
C        2.655786       2.938578       2.496618
C        1.332951       2.696619       2.897444
C        0.544967       1.749497       2.201786
H        2.909316       1.168806      -0.272250
H        4.287126       2.420935       1.123819
H        3.254393       3.705750       2.966104
H        0.817756       3.103955       3.753278
H       -0.487923       1.598708       2.475650
C        1.137380      -1.137380      -1.137380
C        0.692190      -1.411187      -2.482979
C        1.531096      -2.146840      -3.323902
C        2.789165      -2.441782      -2.860036
C        3.241170      -2.112912      -1.572932
C        2.379623      -1.447498      -0.669129
H       -0.168905      -0.993309      -2.981468
H        1.121159      -2.425454      -4.285269
H        3.448699      -2.886218      -3.591330
H        4.186494      -2.368278      -1.120217
H        2.740972      -1.148144       0.302681
C       -1.137380       1.137380      -1.137380
C       -2.492057       0.706292      -1.388008
C       -3.331633       1.546553      -2.123652
C       -2.855493       2.794562      -2.440928
C       -1.558495       3.233937      -2.134582
C       -0.657257       2.369313      -1.469679
H       -2.996099      -0.142776      -0.952549
H       -4.301751       1.145638      -2.384493
H       -3.583969       3.457802      -2.884476
H       -1.097015       4.169909      -2.408066
H        0.322947       2.721780      -1.187602
C       -1.137380      -1.137380       1.137380
C       -1.427438      -2.476342       0.682576
C       -2.163118      -3.318197       1.520523
C       -2.442456      -2.863165       2.785361
C       -2.097811      -1.583252       3.245951
C       -1.431995      -0.677682       2.386572
H       -1.021906      -2.970720      -0.186754
H       -2.454165      -4.273236       1.104480
H       -2.887563      -3.596395       3.442289
H       -2.340501      -1.136880       4.197609
H       -1.120554       0.288055       2.753936

