%chk=MgCl_THF_cation_opt.chk
%nprocshared=8
%mem=14GB
#p B3LYP/def2SVP EmpiricalDispersion=GD3BJ opt freq SCRF=(SMD,Solvent=Tetrahydrofuran) int=ultrafine

MgCl_THF_cation opt/freq SVP

1 1
C        0.420023      -0.863666       0.449110
C       -0.879071      -0.540422      -0.243338
C       -0.904524       0.970744      -0.168258
O        0.460854       1.409612      -0.206575
C        1.309979       0.269421      -0.013489
H        0.283566      -0.812418       1.535829
H        0.819230      -1.850079       0.199473
H       -0.831058      -0.862192      -1.290412
H       -1.753060      -1.006221       0.219121
H       -1.338811       1.313423       0.777002
H       -1.461371       1.423845      -0.993182
H        1.780285       0.036933      -0.974902
H        2.093958       0.511020       0.709622
Mg       1.091802       3.339487      -0.489393
Cl       1.784305       5.457643      -0.799803

