%oldchk=OTfm_opt.chk
%chk=OTfm_tzvp.chk
%nprocshared=8
%mem=14GB
#p B3LYP/def2TZVP EmpiricalDispersion=GD3BJ SCRF=(SMD,Solvent=Tetrahydrofuran) int=ultrafine geom=check guess=read

OTfm def2-TZVP SP

-1 1

