%oldchk=OTf.chk
%chk=OTfm_opt.chk
%nprocshared=8
%mem=14GB
#p B3LYP/def2SVP EmpiricalDispersion=GD3BJ opt freq SCRF=(SMD,Solvent=Tetrahydrofuran) int=ultrafine geom=check guess=read

OTfm opt/freq (restart)

-1 1

