%oldchk=TMSOTf_opt.chk
%chk=TMSOTf_tzvp.chk
%nprocshared=16
%mem=24GB
#p B3LYP/def2TZVP EmpiricalDispersion=GD3BJ SCRF=(SMD,Solvent=Tetrahydrofuran) int=ultrafine geom=check guess=read

TMSOTf def2-TZVP SP

0 1

