%chk=DME.chk
%nprocshared=16
%mem=24GB
#p B3LYP/def2SVP EmpiricalDispersion=GD3BJ opt=loose freq SCRF=(SMD,Solvent=Tetrahydrofuran) int=ultrafine scf=xqc

DME poly-arm

0 1
C       -2.59727927      -0.86216213      -0.33323745
O       -1.19071396      -0.76380550      -0.33323745
C       -0.75500000       0.57718419      -0.33323745
C        0.75500000       0.57718419      -0.33323745
O        1.19071396      -0.09331066       0.82809369
C        2.59727927      -0.14248897       0.91327303
H       -2.96024243      -0.88754298      -1.36071667
H       -2.89817151      -1.77519853       0.18050217
H       -3.02231335       0.00011256       0.18050217
H        2.89813372      -0.15517940       1.96085384
H        2.96031808      -1.04446111       0.42057730
H        3.02227549       0.73410232       0.42432934
H       -1.12476880       1.08612728       0.55690185
H       -1.12476880       1.08612728      -1.22337674
H        1.12476880       0.06077249      -1.21906474
H        1.12476880       1.60253898      -0.32892544

