%chk=Mg2Cl3_DME_THF4_cation_r2.chk
%nprocshared=16
%mem=24GB
#p B3LYP/def2SVP EmpiricalDispersion=GD3BJ opt=(loose,maxcycles=20,maxstep=5) freq SCRF=(SMD,Solvent=Tetrahydrofuran) int=ultrafine scf=(xqc,maxcycle=300)

Mg2Cl3_DME_THF4_cation r2 (restart from best-force geom, step-capped)

1 1
Mg      -1.909550      -0.366512       0.169728
Mg       1.205688      -0.184086       0.100380
Cl      -0.462336       0.132333      -1.800921
Cl      -0.230194      -2.156577       0.749450
Cl      -0.467535       1.172838       1.485090
O       -3.318062       1.073326      -0.406230
C       -3.429949       2.395390       0.157750
C       -2.929297       3.325717      -0.947736
C       -3.210545       2.540816      -2.254553
C       -3.764555       1.194530      -1.772591
H       -2.832768       2.425122       1.075578
H       -4.491492       2.577903       0.398288
H       -1.850788       3.501437      -0.828197
H       -3.440628       4.298052      -0.913041
H       -2.281632       2.387073      -2.819323
H       -3.933174       3.050847      -2.907067
H       -3.394365       0.327481      -2.330196
H       -4.867752       1.179179      -1.772832
O        2.448531      -1.412299      -1.005386
C        1.973602      -2.286973      -2.065117
C        2.982744      -3.424427      -2.107883
C        4.280554      -2.720326      -1.700753
C        3.797004      -1.773586      -0.611685
H        1.956010      -1.711002      -3.003980
H        0.952584      -2.597539      -1.813601
H        3.031779      -3.896290      -3.099458
H        2.717260      -4.196374      -1.367704
H        4.691166      -2.150144      -2.549733
H        5.058019      -3.406072      -1.335282
H        4.391913      -0.853785      -0.526862
H        3.751628      -2.263442       0.373240
O        2.235763       1.467527      -0.616300
C        2.855130       1.466630      -1.932311
C        2.810450       2.918145      -2.392420
C        2.867077       3.686069      -1.068433
C        1.981429       2.829513      -0.179606
H        2.293714       0.783217      -2.580916
H        3.886824       1.096748      -1.821052
H        1.858707       3.121508      -2.908442
H        3.635356       3.158916      -3.077708
H        2.498977       4.719011      -1.144581
H        3.897461       3.711670      -0.677644
H        0.913113       3.048783      -0.324433
H        2.210924       2.889002       0.891751
O        2.446553      -0.304178       1.767107
C        1.982652      -0.730132       3.067367
C        2.231907       0.472467       3.980744
C        3.355441       1.267443       3.266872
C        3.654835       0.441454       2.012148
H        2.578205      -1.608901       3.368405
H        0.932549      -1.022344       2.968037
H        2.518119       0.148667       4.991343
H        1.319346       1.078943       4.058071
H        4.256348       1.382212       3.885971
H        3.005085       2.272495       2.991951
H        4.474302      -0.276532       2.186026
H        3.877836       1.030968       1.116457
C       -2.645469      -2.653286      -1.832578
O       -3.117852      -1.822648      -0.770759
C       -3.961196      -2.509563       0.156732
C       -4.413902      -1.519685       1.201854
O       -3.251105      -0.874854       1.724134
C       -3.501182      -0.070346       2.874915
H       -3.498308      -3.016365      -2.429077
H       -1.982888      -2.041427      -2.454991
H       -2.080970      -3.508846      -1.428678
H       -2.547258       0.382055       3.169806
H       -4.234404       0.721470       2.647100
H       -3.885973      -0.698350       3.694865
H       -3.395299      -3.337726       0.617454
H       -4.837954      -2.925235      -0.367261
H       -5.090994      -0.761672       0.770805
H       -4.944134      -2.053741       2.007263

