%oldchk=Mg2Cl3_THF6_cation_opt.chk
%chk=Mg2Cl3_THF6_cation_tzvp.chk
%nprocshared=24
%mem=48GB
#p B3LYP/def2TZVP EmpiricalDispersion=GD3BJ SCRF=(SMD,Solvent=Tetrahydrofuran) int=ultrafine geom=check guess=read

Mg2Cl3_THF6_cation def2-TZVP SP

1 1

