%chk=MgCl2_THF4_neutral.chk
%nprocshared=16
%mem=24GB
#p B3LYP/def2SVP EmpiricalDispersion=GD3BJ opt freq SCRF=(SMD,Solvent=Tetrahydrofuran) int=ultrafine scf=xqc

MgCl2_THF4_neutral octahedral solvated monomer opt/freq SVP

0 1
Mg       0.000000       0.000000       0.000000
Cl       0.000000       0.000000       2.480000
Cl      -0.000000      -0.000000      -2.480000
C        4.557516      -0.729790      -0.232935
C        4.557517       0.729789       0.232932
C        3.137743       1.162596      -0.134095
O        2.320000       0.000000       0.000000
C        3.137743      -1.162596       0.134098
H        4.704856      -0.781426      -1.324693
H        5.330196      -1.348710       0.246811
H        4.704863       0.781425       1.324689
H        5.330195       1.348709      -0.246818
H        3.095432       1.532622      -1.177948
H        2.745694       1.960392       0.519547
H        3.095437      -1.532616       1.177953
H        2.745691      -1.960395      -0.519538
C       -4.557516      -0.254147      -0.722676
C       -4.557517       0.254144       0.722676
C       -3.137743      -0.100087       1.166016
O       -2.320000       0.000000       0.000000
C       -3.137743       0.100091      -1.166016
H       -4.704856      -1.346947      -0.742409
H       -5.330196       0.207321      -1.355342
H       -4.704863       1.346943       0.742408
H       -5.330195      -0.207328       1.355341
H       -3.095432      -1.132690       1.566367
H       -2.745694       0.576573       1.944384
H       -3.095437       1.132695      -1.566361
H       -2.745691      -0.576564      -1.944387
C        0.655794       4.557516       0.395962
C       -0.655791       4.557517      -0.395963
C       -0.664470       3.137743      -0.963375
O        0.000000       2.320000       0.000000
C        0.664467       3.137743       0.963376
H        1.511561       4.704856      -0.283938
H        0.702157       5.330196       1.177671
H       -1.511557       4.704863       0.283936
H       -0.702151       5.330195      -1.177675
H       -0.122366       3.095432      -1.929124
H       -1.681705       2.745694      -1.133550
H        0.122358       3.095437       1.929123
H        1.681700       2.745691       1.133557
C       -0.223877      -4.557516       0.732619
C        0.223874      -4.557517      -0.732618
C       -0.148486      -3.137743      -1.160846
O        0.000000      -2.320000       0.000000
C        0.148489      -3.137743       1.160845
H       -1.314912      -4.704856       0.797775
H        0.263500      -5.330196       1.345549
H        1.314908      -4.704863      -0.797774
H       -0.263506      -5.330195      -1.345548
H       -1.196843      -3.095432      -1.517912
H        0.495223      -2.745694      -1.966678
H        1.196848      -3.095437       1.517907
H       -0.495214      -2.745691       1.966680

