%chk=MgCl_THF5_cation.chk
%nprocshared=16
%mem=24GB
#p B3LYP/def2SVP EmpiricalDispersion=GD3BJ opt freq SCRF=(SMD,Solvent=Tetrahydrofuran) int=ultrafine scf=xqc

MgCl_THF5_cation octahedral solvated monomer opt/freq SVP

1 1
Mg       0.000000       0.000000       0.000000
Cl       0.000000       0.000000       2.480000
C       -0.729789       0.232937      -4.557516
C        0.729789      -0.232933      -4.557517
C        1.162597       0.134092      -3.137743
O        0.000000       0.000000      -2.320000
C       -1.162596      -0.134096      -3.137743
H       -0.781423       1.324695      -4.704856
H       -1.348710      -0.246809      -5.330196
H        0.781422      -1.324691      -4.704863
H        1.348709       0.246816      -5.330195
H        1.532624       1.177945      -3.095432
H        1.960391      -0.519550      -2.745694
H       -1.532619      -1.177950      -3.095437
H       -1.960394       0.519542      -2.745691
C        4.557516      -0.198299      -0.739952
C        4.557517       0.198301       0.739950
C        3.137743       0.740990       0.905839
O        2.320000       0.000000       0.000000
C        3.137743      -0.740993      -0.905837
H        4.704856       0.692485      -1.373282
H        5.330196      -0.936396      -1.001547
H        4.704863      -0.692482       1.373279
H        5.330195       0.936401       1.001543
H        3.095432       1.819288       0.653209
H        2.745694       0.622021       1.930325
H        3.095437      -1.819290      -0.653201
H        2.745691      -0.622029      -1.930323
C       -4.557516      -0.617811      -0.452948
C       -4.557517       0.617808       0.452949
C       -3.137743       0.575777       1.018868
O       -2.320000       0.000000       0.000000
C       -3.137743      -0.575774      -1.018870
H       -4.704856      -1.530879       0.147807
H       -5.330196      -0.594174      -1.235674
H       -4.704863       1.530875      -0.147806
H       -5.330195       0.594168       1.235678
H       -3.095432      -0.050412       1.932343
H       -2.745694       1.573748       1.279212
H       -3.095437       0.050420      -1.932342
H       -2.745691      -1.573742      -1.279219
C        0.743519       4.557516       0.184476
C       -0.743517       4.557517      -0.184479
C       -0.919490       3.137743      -0.723983
O        0.000000       2.320000       0.000000
C        0.919487       3.137743       0.723985
H        1.360140       4.704856      -0.717954
H        1.018822       5.330196       0.917571
H       -1.360137       4.704863       0.717951
H       -1.018818       5.330195      -0.917576
H       -0.686995       3.095432      -1.806801
H       -1.941581       2.745694      -0.585944
H        0.686988       3.095437       1.806802
H        1.941578       2.745691       0.585953
C       -0.223877      -4.557516       0.732619
C        0.223874      -4.557517      -0.732618
C       -0.148486      -3.137743      -1.160846
O        0.000000      -2.320000       0.000000
C        0.148489      -3.137743       1.160845
H       -1.314912      -4.704856       0.797775
H        0.263500      -5.330196       1.345549
H        1.314908      -4.704863      -0.797774
H       -0.263506      -5.330195      -1.345548
H       -1.196843      -3.095432      -1.517912
H        0.495223      -2.745694      -1.966678
H        1.196848      -3.095437       1.517907
H       -0.495214      -2.745691       1.966680

