%chk=MgCl_DME_THF3_cation.chk
%nprocshared=16
%mem=24GB
#p B3LYP/def2SVP EmpiricalDispersion=GD3BJ opt=loose freq SCRF=(SMD,Solvent=Tetrahydrofuran) int=ultrafine scf=xqc

MgCl_DME_THF3_cation poly-arm

1 1
Mg       0.40971526       0.40971544      -0.78233120
Cl       0.40971526       0.40971544      -3.18233120
C        0.15564029       2.79838382      -2.72442874
O        1.05410686       2.02037902      -1.96576785
C        1.89898330       2.81787282      -1.16683892
C        2.81787264       1.89898348      -0.39782348
O        2.02037884       1.05410704       0.40110545
C        2.79838364       0.15564047       1.15976634
H        0.60750046       3.04197610      -3.68598227
H       -0.76403643       2.23655512      -2.88765635
H       -0.07208911       3.71891095      -2.18696329
H        2.27889326      -0.08116319       2.08828870
H        2.95722181      -0.75949497       0.58933005
H        3.76132657       0.61203362       1.38899594
H        1.30166937       3.40908866      -0.47273525
H        2.48630858       3.48329652      -1.79957925
H        3.40908848       1.30166955      -1.09192716
H        3.48329634       2.48630876       0.23491685
C       -3.95779984       0.97633931      -0.26678413
C       -3.95780120      -0.15690522      -1.29787934
C       -2.53802740      -0.05545588      -1.85621493
O       -1.72028474       0.40971544      -0.78233120
C       -2.53802755       0.87488356       0.29155358
H       -4.10514027       1.94764565      -0.76794698
H       -4.73047947       0.87032849       0.50908989
H       -4.10514691      -1.12821080      -0.79671659
H       -4.73047895      -0.05089127      -2.07375479
H       -2.49571678       0.66353249      -2.69859450
H       -2.14597813      -1.02042435      -2.22030328
H       -2.49572093       0.15589109       1.13392997
H       -2.14597569       1.83984899       0.65564700
C       -0.33876873      -3.95779967      -0.61916532
C        1.15819701      -3.95780102      -0.94549960
C        1.34950643      -2.53802722      -1.47975731
O        0.40971526      -1.72028456      -0.78233120
C       -0.53007366      -2.53802737      -0.08490257
H       -0.92936443      -4.10514009      -1.53883751
H       -0.63489676      -4.73047929       0.10576707
H        1.74879210      -4.10514673      -0.02582789
H        1.45432305      -4.73047877      -1.67043480
H        1.14803264      -2.49571661      -2.56877336
H        2.36723802      -2.14597795      -1.31258414
H       -0.32859473      -2.49572075       1.00411276
H       -1.54780515      -2.14597551      -0.25206985
C        0.17677951       1.13950468       3.58518390
C        0.64264771      -0.32007311       3.58518526
C        0.27562140      -0.75288056       2.16541146
O        0.40971526       0.40971544       1.34766880
C        0.54381243       1.57231075       2.16541161
H       -0.91497778       1.19114014       3.73252433
H        0.65652575       1.75842497       4.35786353
H        1.73440429      -0.37170828       3.73253097
H        0.16289804      -0.93899308       4.35786301
H       -0.76823128      -1.12290651       2.12310084
H        0.92926292      -1.55067578       1.77336219
H        1.58766707       1.94233190       2.12310499
H       -0.10982393       2.37010885       1.77335975

